proyfinal/src/viki/013/andrea/andrea-localstore/experimentInOfficeAgust.take6/worker_3/d3822e40-7644-4dfb-8695-d31d51d38ebf.als.cnf.out
Reading from standard input... Use '--help' for help.
============================[ Problem Statistics ]=============================
|                                                                             |
|  Number of variables:         87638                                         |
|  Number of clauses:          161767                                         |
|  Parse time:                   0.03 s                                       |
|                                                                             |
============================[ Search Statistics ]==============================
| Conflicts |          ORIGINAL         |          LEARNT          | Progress |
|           |    Vars  Clauses Literals |    Limit  Clauses Lit/Cl |          |
===============================================================================
|       100 |   63119   107943   269647 |    39579      100     16 | 27.978 % |
|       250 |   63093   107835   269400 |    43537      249     38 | 28.007 % |
|       475 |   63093   107835   269400 |    47890      474    107 | 28.007 % |
|       812 |   63093   107835   269400 |    52679      811     89 | 28.007 % |
|      1318 |   63092   107832   269394 |    57947     1315     70 | 28.008 % |
|      2077 |   63091   107788   269304 |    63742     2071     72 | 28.010 % |
|      3216 |   63091   107788   269304 |    70116     3210     76 | 28.010 % |
|      4924 |   63091   107788   269304 |    77128     4918     72 | 28.010 % |
|      7486 |   63091   107788   269304 |    84841     7480     78 | 28.010 % |
|     11330 |   54113    80813   203322 |    93325    10343     76 | 38.254 % |
|     17096 |   53961    80088   201588 |   102657    11459     66 | 38.427 % |
===============================================================================
restarts              : 63
conflicts             : 18848          (6632 /sec)
decisions             : 67188          (0.00 % random) (23643 /sec)
propagations          : 30366120       (10685410 /sec)
conflict literals     : 1339830        (52.48 % deleted)
Memory used           : 34.60 MB
CPU time              : 2.84183 s

INDETERMINATE
